(set-logic QF_LRA)
(declare-fun T1 () Real )
(declare-fun T2 () Real )
(declare-fun T3 () Real )
(declare-fun T4 () Real )
(declare-fun T5 () Real )
(declare-fun T6 () Real )
(declare-fun T7 () Real )
(declare-fun T8 () Real )
(declare-fun T9 () Real )
(declare-fun T10 () Real )
(declare-fun Z () Real )
(declare-fun k () Real )
(assert (let
(( $goal (>= Z k) ))
(let
((
$phi ( and 
(or ( <= ( + T1 63 ) T2 ) ( <= ( + T2 54 ) T1 ) )
(or ( <= ( + T1 128 )  ( + T2 54 ) ) ( <= ( + T2 89 )( + T1 63 ) ) )
(or ( <= ( + T1 155 )  ( + T2 89 ) ) ( <= ( + T2 139 )( + T1 128 ) ) )
(or ( <= ( + T1 240 )  ( + T2 139 ) ) ( <= ( + T2 185 )( + T1 155 ) ) )
(or ( <= ( + T1 295 )  ( + T2 185 ) ) ( <= ( + T2 261 )( + T1 240 ) ) )
(or ( <= ( + T1 392 )  ( + T2 261 ) ) ( <= ( + T2 301 )( + T1 295 ) ) )
(or ( <= ( + T1 396 )  ( + T2 301 ) ) ( <= ( + T2 387 )( + T1 392 ) ) )
(or ( <= ( + T1 435 )  ( + T2 387 ) ) ( <= ( + T2 403 )( + T1 396 ) ) )
(or ( <= ( + T1 63 ) T3 ) ( <= ( + T3 34 ) T1 ) )
(or ( <= ( + T1 128 )  ( + T3 34 ) ) ( <= ( + T3 86 )( + T1 63 ) ) )
(or ( <= ( + T1 155 )  ( + T3 86 ) ) ( <= ( + T3 158 )( + T1 128 ) ) )
(or ( <= ( + T1 240 )  ( + T3 158 ) ) ( <= ( + T3 168 )( + T1 155 ) ) )
(or ( <= ( + T1 295 )  ( + T3 168 ) ) ( <= ( + T3 228 )( + T1 240 ) ) )
(or ( <= ( + T1 392 )  ( + T3 228 ) ) ( <= ( + T3 286 )( + T1 295 ) ) )
(or ( <= ( + T1 396 )  ( + T3 286 ) ) ( <= ( + T3 320 )( + T1 392 ) ) )
(or ( <= ( + T1 435 )  ( + T3 320 ) ) ( <= ( + T3 371 )( + T1 396 ) ) )
(or ( <= ( + T1 63 ) T4 ) ( <= ( + T4 90 ) T1 ) )
(or ( <= ( + T1 128 )  ( + T4 90 ) ) ( <= ( + T4 146 )( + T1 63 ) ) )
(or ( <= ( + T1 155 )  ( + T4 146 ) ) ( <= ( + T4 204 )( + T1 128 ) ) )
(or ( <= ( + T1 240 )  ( + T4 204 ) ) ( <= ( + T4 253 )( + T1 155 ) ) )
(or ( <= ( + T1 295 )  ( + T4 253 ) ) ( <= ( + T4 310 )( + T1 240 ) ) )
(or ( <= ( + T1 392 )  ( + T4 310 ) ) ( <= ( + T4 368 )( + T1 295 ) ) )
(or ( <= ( + T1 396 )  ( + T4 368 ) ) ( <= ( + T4 386 )( + T1 392 ) ) )
(or ( <= ( + T1 435 )  ( + T4 386 ) ) ( <= ( + T4 457 )( + T1 396 ) ) )
(or ( <= ( + T1 63 ) T5 ) ( <= ( + T5 75 ) T1 ) )
(or ( <= ( + T1 128 )  ( + T5 75 ) ) ( <= ( + T5 119 )( + T1 63 ) ) )
(or ( <= ( + T1 155 )  ( + T5 119 ) ) ( <= ( + T5 126 )( + T1 128 ) ) )
(or ( <= ( + T1 240 )  ( + T5 126 ) ) ( <= ( + T5 155 )( + T1 155 ) ) )
(or ( <= ( + T1 295 )  ( + T5 155 ) ) ( <= ( + T5 196 )( + T1 240 ) ) )
(or ( <= ( + T1 392 )  ( + T5 196 ) ) ( <= ( + T5 207 )( + T1 295 ) ) )
(or ( <= ( + T1 396 )  ( + T5 207 ) ) ( <= ( + T5 226 )( + T1 392 ) ) )
(or ( <= ( + T1 435 )  ( + T5 226 ) ) ( <= ( + T5 272 )( + T1 396 ) ) )
(or ( <= ( + T1 63 ) T6 ) ( <= ( + T6 97 ) T1 ) )
(or ( <= ( + T1 128 )  ( + T6 97 ) ) ( <= ( + T6 165 )( + T1 63 ) ) )
(or ( <= ( + T1 155 )  ( + T6 165 ) ) ( <= ( + T6 257 )( + T1 128 ) ) )
(or ( <= ( + T1 240 )  ( + T6 257 ) ) ( <= ( + T6 281 )( + T1 155 ) ) )
(or ( <= ( + T1 295 )  ( + T6 281 ) ) ( <= ( + T6 341 )( + T1 240 ) ) )
(or ( <= ( + T1 392 )  ( + T6 341 ) ) ( <= ( + T6 370 )( + T1 295 ) ) )
(or ( <= ( + T1 396 )  ( + T6 370 ) ) ( <= ( + T6 409 )( + T1 392 ) ) )
(or ( <= ( + T1 435 )  ( + T6 409 ) ) ( <= ( + T6 454 )( + T1 396 ) ) )
(or ( <= ( + T1 63 ) T7 ) ( <= ( + T7 81 ) T1 ) )
(or ( <= ( + T1 128 )  ( + T7 81 ) ) ( <= ( + T7 91 )( + T1 63 ) ) )
(or ( <= ( + T1 155 )  ( + T7 91 ) ) ( <= ( + T7 145 )( + T1 128 ) ) )
(or ( <= ( + T1 240 )  ( + T7 145 ) ) ( <= ( + T7 237 )( + T1 155 ) ) )
(or ( <= ( + T1 295 )  ( + T7 237 ) ) ( <= ( + T7 304 )( + T1 240 ) ) )
(or ( <= ( + T1 392 )  ( + T7 304 ) ) ( <= ( + T7 343 )( + T1 295 ) ) )
(or ( <= ( + T1 396 )  ( + T7 343 ) ) ( <= ( + T7 385 )( + T1 392 ) ) )
(or ( <= ( + T1 435 )  ( + T7 385 ) ) ( <= ( + T7 393 )( + T1 396 ) ) )
(or ( <= ( + T1 63 ) T8 ) ( <= ( + T8 46 ) T1 ) )
(or ( <= ( + T1 128 )  ( + T8 46 ) ) ( <= ( + T8 98 )( + T1 63 ) ) )
(or ( <= ( + T1 155 )  ( + T8 98 ) ) ( <= ( + T8 155 )( + T1 128 ) ) )
(or ( <= ( + T1 240 )  ( + T8 155 ) ) ( <= ( + T8 210 )( + T1 155 ) ) )
(or ( <= ( + T1 295 )  ( + T8 210 ) ) ( <= ( + T8 271 )( + T1 240 ) ) )
(or ( <= ( + T1 392 )  ( + T8 271 ) ) ( <= ( + T8 345 )( + T1 295 ) ) )
(or ( <= ( + T1 396 )  ( + T8 345 ) ) ( <= ( + T8 370 )( + T1 392 ) ) )
(or ( <= ( + T1 435 )  ( + T8 370 ) ) ( <= ( + T8 405 )( + T1 396 ) ) )
(or ( <= ( + T1 63 ) T9 ) ( <= ( + T9 69 ) T1 ) )
(or ( <= ( + T1 128 )  ( + T9 69 ) ) ( <= ( + T9 101 )( + T1 63 ) ) )
(or ( <= ( + T1 155 )  ( + T9 101 ) ) ( <= ( + T9 165 )( + T1 128 ) ) )
(or ( <= ( + T1 240 )  ( + T9 165 ) ) ( <= ( + T9 174 )( + T1 155 ) ) )
(or ( <= ( + T1 295 )  ( + T9 174 ) ) ( <= ( + T9 268 )( + T1 240 ) ) )
(or ( <= ( + T1 392 )  ( + T9 268 ) ) ( <= ( + T9 302 )( + T1 295 ) ) )
(or ( <= ( + T1 396 )  ( + T9 302 ) ) ( <= ( + T9 309 )( + T1 392 ) ) )
(or ( <= ( + T1 435 )  ( + T9 309 ) ) ( <= ( + T9 351 )( + T1 396 ) ) )
(or ( <= ( + T1 63 ) T10 ) ( <= ( + T10 2 ) T1 ) )
(or ( <= ( + T1 128 )  ( + T10 2 ) ) ( <= ( + T10 52 )( + T1 63 ) ) )
(or ( <= ( + T1 155 )  ( + T10 52 ) ) ( <= ( + T10 117 )( + T1 128 ) ) )
(or ( <= ( + T1 240 )  ( + T10 117 ) ) ( <= ( + T10 130 )( + T1 155 ) ) )
(or ( <= ( + T1 295 )  ( + T10 130 ) ) ( <= ( + T10 208 )( + T1 240 ) ) )
(or ( <= ( + T1 392 )  ( + T10 208 ) ) ( <= ( + T10 211 )( + T1 295 ) ) )
(or ( <= ( + T1 396 )  ( + T10 211 ) ) ( <= ( + T10 268 )( + T1 392 ) ) )
(or ( <= ( + T1 435 )  ( + T10 268 ) ) ( <= ( + T10 326 )( + T1 396 ) ) )
(or ( <= ( + T2 54 ) T3 ) ( <= ( + T3 34 ) T2 ) )
(or ( <= ( + T2 89 )  ( + T3 34 ) ) ( <= ( + T3 86 )( + T2 54 ) ) )
(or ( <= ( + T2 139 )  ( + T3 86 ) ) ( <= ( + T3 158 )( + T2 89 ) ) )
(or ( <= ( + T2 185 )  ( + T3 158 ) ) ( <= ( + T3 168 )( + T2 139 ) ) )
(or ( <= ( + T2 261 )  ( + T3 168 ) ) ( <= ( + T3 228 )( + T2 185 ) ) )
(or ( <= ( + T2 301 )  ( + T3 228 ) ) ( <= ( + T3 286 )( + T2 261 ) ) )
(or ( <= ( + T2 387 )  ( + T3 286 ) ) ( <= ( + T3 320 )( + T2 301 ) ) )
(or ( <= ( + T2 403 )  ( + T3 320 ) ) ( <= ( + T3 371 )( + T2 387 ) ) )
(or ( <= ( + T2 54 ) T4 ) ( <= ( + T4 90 ) T2 ) )
(or ( <= ( + T2 89 )  ( + T4 90 ) ) ( <= ( + T4 146 )( + T2 54 ) ) )
(or ( <= ( + T2 139 )  ( + T4 146 ) ) ( <= ( + T4 204 )( + T2 89 ) ) )
(or ( <= ( + T2 185 )  ( + T4 204 ) ) ( <= ( + T4 253 )( + T2 139 ) ) )
(or ( <= ( + T2 261 )  ( + T4 253 ) ) ( <= ( + T4 310 )( + T2 185 ) ) )
(or ( <= ( + T2 301 )  ( + T4 310 ) ) ( <= ( + T4 368 )( + T2 261 ) ) )
(or ( <= ( + T2 387 )  ( + T4 368 ) ) ( <= ( + T4 386 )( + T2 301 ) ) )
(or ( <= ( + T2 403 )  ( + T4 386 ) ) ( <= ( + T4 457 )( + T2 387 ) ) )
(or ( <= ( + T2 54 ) T5 ) ( <= ( + T5 75 ) T2 ) )
(or ( <= ( + T2 89 )  ( + T5 75 ) ) ( <= ( + T5 119 )( + T2 54 ) ) )
(or ( <= ( + T2 139 )  ( + T5 119 ) ) ( <= ( + T5 126 )( + T2 89 ) ) )
(or ( <= ( + T2 185 )  ( + T5 126 ) ) ( <= ( + T5 155 )( + T2 139 ) ) )
(or ( <= ( + T2 261 )  ( + T5 155 ) ) ( <= ( + T5 196 )( + T2 185 ) ) )
(or ( <= ( + T2 301 )  ( + T5 196 ) ) ( <= ( + T5 207 )( + T2 261 ) ) )
(or ( <= ( + T2 387 )  ( + T5 207 ) ) ( <= ( + T5 226 )( + T2 301 ) ) )
(or ( <= ( + T2 403 )  ( + T5 226 ) ) ( <= ( + T5 272 )( + T2 387 ) ) )
(or ( <= ( + T2 54 ) T6 ) ( <= ( + T6 97 ) T2 ) )
(or ( <= ( + T2 89 )  ( + T6 97 ) ) ( <= ( + T6 165 )( + T2 54 ) ) )
(or ( <= ( + T2 139 )  ( + T6 165 ) ) ( <= ( + T6 257 )( + T2 89 ) ) )
(or ( <= ( + T2 185 )  ( + T6 257 ) ) ( <= ( + T6 281 )( + T2 139 ) ) )
(or ( <= ( + T2 261 )  ( + T6 281 ) ) ( <= ( + T6 341 )( + T2 185 ) ) )
(or ( <= ( + T2 301 )  ( + T6 341 ) ) ( <= ( + T6 370 )( + T2 261 ) ) )
(or ( <= ( + T2 387 )  ( + T6 370 ) ) ( <= ( + T6 409 )( + T2 301 ) ) )
(or ( <= ( + T2 403 )  ( + T6 409 ) ) ( <= ( + T6 454 )( + T2 387 ) ) )
(or ( <= ( + T2 54 ) T7 ) ( <= ( + T7 81 ) T2 ) )
(or ( <= ( + T2 89 )  ( + T7 81 ) ) ( <= ( + T7 91 )( + T2 54 ) ) )
(or ( <= ( + T2 139 )  ( + T7 91 ) ) ( <= ( + T7 145 )( + T2 89 ) ) )
(or ( <= ( + T2 185 )  ( + T7 145 ) ) ( <= ( + T7 237 )( + T2 139 ) ) )
(or ( <= ( + T2 261 )  ( + T7 237 ) ) ( <= ( + T7 304 )( + T2 185 ) ) )
(or ( <= ( + T2 301 )  ( + T7 304 ) ) ( <= ( + T7 343 )( + T2 261 ) ) )
(or ( <= ( + T2 387 )  ( + T7 343 ) ) ( <= ( + T7 385 )( + T2 301 ) ) )
(or ( <= ( + T2 403 )  ( + T7 385 ) ) ( <= ( + T7 393 )( + T2 387 ) ) )
(or ( <= ( + T2 54 ) T8 ) ( <= ( + T8 46 ) T2 ) )
(or ( <= ( + T2 89 )  ( + T8 46 ) ) ( <= ( + T8 98 )( + T2 54 ) ) )
(or ( <= ( + T2 139 )  ( + T8 98 ) ) ( <= ( + T8 155 )( + T2 89 ) ) )
(or ( <= ( + T2 185 )  ( + T8 155 ) ) ( <= ( + T8 210 )( + T2 139 ) ) )
(or ( <= ( + T2 261 )  ( + T8 210 ) ) ( <= ( + T8 271 )( + T2 185 ) ) )
(or ( <= ( + T2 301 )  ( + T8 271 ) ) ( <= ( + T8 345 )( + T2 261 ) ) )
(or ( <= ( + T2 387 )  ( + T8 345 ) ) ( <= ( + T8 370 )( + T2 301 ) ) )
(or ( <= ( + T2 403 )  ( + T8 370 ) ) ( <= ( + T8 405 )( + T2 387 ) ) )
(or ( <= ( + T2 54 ) T9 ) ( <= ( + T9 69 ) T2 ) )
(or ( <= ( + T2 89 )  ( + T9 69 ) ) ( <= ( + T9 101 )( + T2 54 ) ) )
(or ( <= ( + T2 139 )  ( + T9 101 ) ) ( <= ( + T9 165 )( + T2 89 ) ) )
(or ( <= ( + T2 185 )  ( + T9 165 ) ) ( <= ( + T9 174 )( + T2 139 ) ) )
(or ( <= ( + T2 261 )  ( + T9 174 ) ) ( <= ( + T9 268 )( + T2 185 ) ) )
(or ( <= ( + T2 301 )  ( + T9 268 ) ) ( <= ( + T9 302 )( + T2 261 ) ) )
(or ( <= ( + T2 387 )  ( + T9 302 ) ) ( <= ( + T9 309 )( + T2 301 ) ) )
(or ( <= ( + T2 403 )  ( + T9 309 ) ) ( <= ( + T9 351 )( + T2 387 ) ) )
(or ( <= ( + T2 54 ) T10 ) ( <= ( + T10 2 ) T2 ) )
(or ( <= ( + T2 89 )  ( + T10 2 ) ) ( <= ( + T10 52 )( + T2 54 ) ) )
(or ( <= ( + T2 139 )  ( + T10 52 ) ) ( <= ( + T10 117 )( + T2 89 ) ) )
(or ( <= ( + T2 185 )  ( + T10 117 ) ) ( <= ( + T10 130 )( + T2 139 ) ) )
(or ( <= ( + T2 261 )  ( + T10 130 ) ) ( <= ( + T10 208 )( + T2 185 ) ) )
(or ( <= ( + T2 301 )  ( + T10 208 ) ) ( <= ( + T10 211 )( + T2 261 ) ) )
(or ( <= ( + T2 387 )  ( + T10 211 ) ) ( <= ( + T10 268 )( + T2 301 ) ) )
(or ( <= ( + T2 403 )  ( + T10 268 ) ) ( <= ( + T10 326 )( + T2 387 ) ) )
(or ( <= ( + T3 34 ) T4 ) ( <= ( + T4 90 ) T3 ) )
(or ( <= ( + T3 86 )  ( + T4 90 ) ) ( <= ( + T4 146 )( + T3 34 ) ) )
(or ( <= ( + T3 158 )  ( + T4 146 ) ) ( <= ( + T4 204 )( + T3 86 ) ) )
(or ( <= ( + T3 168 )  ( + T4 204 ) ) ( <= ( + T4 253 )( + T3 158 ) ) )
(or ( <= ( + T3 228 )  ( + T4 253 ) ) ( <= ( + T4 310 )( + T3 168 ) ) )
(or ( <= ( + T3 286 )  ( + T4 310 ) ) ( <= ( + T4 368 )( + T3 228 ) ) )
(or ( <= ( + T3 320 )  ( + T4 368 ) ) ( <= ( + T4 386 )( + T3 286 ) ) )
(or ( <= ( + T3 371 )  ( + T4 386 ) ) ( <= ( + T4 457 )( + T3 320 ) ) )
(or ( <= ( + T3 34 ) T5 ) ( <= ( + T5 75 ) T3 ) )
(or ( <= ( + T3 86 )  ( + T5 75 ) ) ( <= ( + T5 119 )( + T3 34 ) ) )
(or ( <= ( + T3 158 )  ( + T5 119 ) ) ( <= ( + T5 126 )( + T3 86 ) ) )
(or ( <= ( + T3 168 )  ( + T5 126 ) ) ( <= ( + T5 155 )( + T3 158 ) ) )
(or ( <= ( + T3 228 )  ( + T5 155 ) ) ( <= ( + T5 196 )( + T3 168 ) ) )
(or ( <= ( + T3 286 )  ( + T5 196 ) ) ( <= ( + T5 207 )( + T3 228 ) ) )
(or ( <= ( + T3 320 )  ( + T5 207 ) ) ( <= ( + T5 226 )( + T3 286 ) ) )
(or ( <= ( + T3 371 )  ( + T5 226 ) ) ( <= ( + T5 272 )( + T3 320 ) ) )
(or ( <= ( + T3 34 ) T6 ) ( <= ( + T6 97 ) T3 ) )
(or ( <= ( + T3 86 )  ( + T6 97 ) ) ( <= ( + T6 165 )( + T3 34 ) ) )
(or ( <= ( + T3 158 )  ( + T6 165 ) ) ( <= ( + T6 257 )( + T3 86 ) ) )
(or ( <= ( + T3 168 )  ( + T6 257 ) ) ( <= ( + T6 281 )( + T3 158 ) ) )
(or ( <= ( + T3 228 )  ( + T6 281 ) ) ( <= ( + T6 341 )( + T3 168 ) ) )
(or ( <= ( + T3 286 )  ( + T6 341 ) ) ( <= ( + T6 370 )( + T3 228 ) ) )
(or ( <= ( + T3 320 )  ( + T6 370 ) ) ( <= ( + T6 409 )( + T3 286 ) ) )
(or ( <= ( + T3 371 )  ( + T6 409 ) ) ( <= ( + T6 454 )( + T3 320 ) ) )
(or ( <= ( + T3 34 ) T7 ) ( <= ( + T7 81 ) T3 ) )
(or ( <= ( + T3 86 )  ( + T7 81 ) ) ( <= ( + T7 91 )( + T3 34 ) ) )
(or ( <= ( + T3 158 )  ( + T7 91 ) ) ( <= ( + T7 145 )( + T3 86 ) ) )
(or ( <= ( + T3 168 )  ( + T7 145 ) ) ( <= ( + T7 237 )( + T3 158 ) ) )
(or ( <= ( + T3 228 )  ( + T7 237 ) ) ( <= ( + T7 304 )( + T3 168 ) ) )
(or ( <= ( + T3 286 )  ( + T7 304 ) ) ( <= ( + T7 343 )( + T3 228 ) ) )
(or ( <= ( + T3 320 )  ( + T7 343 ) ) ( <= ( + T7 385 )( + T3 286 ) ) )
(or ( <= ( + T3 371 )  ( + T7 385 ) ) ( <= ( + T7 393 )( + T3 320 ) ) )
(or ( <= ( + T3 34 ) T8 ) ( <= ( + T8 46 ) T3 ) )
(or ( <= ( + T3 86 )  ( + T8 46 ) ) ( <= ( + T8 98 )( + T3 34 ) ) )
(or ( <= ( + T3 158 )  ( + T8 98 ) ) ( <= ( + T8 155 )( + T3 86 ) ) )
(or ( <= ( + T3 168 )  ( + T8 155 ) ) ( <= ( + T8 210 )( + T3 158 ) ) )
(or ( <= ( + T3 228 )  ( + T8 210 ) ) ( <= ( + T8 271 )( + T3 168 ) ) )
(or ( <= ( + T3 286 )  ( + T8 271 ) ) ( <= ( + T8 345 )( + T3 228 ) ) )
(or ( <= ( + T3 320 )  ( + T8 345 ) ) ( <= ( + T8 370 )( + T3 286 ) ) )
(or ( <= ( + T3 371 )  ( + T8 370 ) ) ( <= ( + T8 405 )( + T3 320 ) ) )
(or ( <= ( + T3 34 ) T9 ) ( <= ( + T9 69 ) T3 ) )
(or ( <= ( + T3 86 )  ( + T9 69 ) ) ( <= ( + T9 101 )( + T3 34 ) ) )
(or ( <= ( + T3 158 )  ( + T9 101 ) ) ( <= ( + T9 165 )( + T3 86 ) ) )
(or ( <= ( + T3 168 )  ( + T9 165 ) ) ( <= ( + T9 174 )( + T3 158 ) ) )
(or ( <= ( + T3 228 )  ( + T9 174 ) ) ( <= ( + T9 268 )( + T3 168 ) ) )
(or ( <= ( + T3 286 )  ( + T9 268 ) ) ( <= ( + T9 302 )( + T3 228 ) ) )
(or ( <= ( + T3 320 )  ( + T9 302 ) ) ( <= ( + T9 309 )( + T3 286 ) ) )
(or ( <= ( + T3 371 )  ( + T9 309 ) ) ( <= ( + T9 351 )( + T3 320 ) ) )
(or ( <= ( + T3 34 ) T10 ) ( <= ( + T10 2 ) T3 ) )
(or ( <= ( + T3 86 )  ( + T10 2 ) ) ( <= ( + T10 52 )( + T3 34 ) ) )
(or ( <= ( + T3 158 )  ( + T10 52 ) ) ( <= ( + T10 117 )( + T3 86 ) ) )
(or ( <= ( + T3 168 )  ( + T10 117 ) ) ( <= ( + T10 130 )( + T3 158 ) ) )
(or ( <= ( + T3 228 )  ( + T10 130 ) ) ( <= ( + T10 208 )( + T3 168 ) ) )
(or ( <= ( + T3 286 )  ( + T10 208 ) ) ( <= ( + T10 211 )( + T3 228 ) ) )
(or ( <= ( + T3 320 )  ( + T10 211 ) ) ( <= ( + T10 268 )( + T3 286 ) ) )
(or ( <= ( + T3 371 )  ( + T10 268 ) ) ( <= ( + T10 326 )( + T3 320 ) ) )
(or ( <= ( + T4 90 ) T5 ) ( <= ( + T5 75 ) T4 ) )
(or ( <= ( + T4 146 )  ( + T5 75 ) ) ( <= ( + T5 119 )( + T4 90 ) ) )
(or ( <= ( + T4 204 )  ( + T5 119 ) ) ( <= ( + T5 126 )( + T4 146 ) ) )
(or ( <= ( + T4 253 )  ( + T5 126 ) ) ( <= ( + T5 155 )( + T4 204 ) ) )
(or ( <= ( + T4 310 )  ( + T5 155 ) ) ( <= ( + T5 196 )( + T4 253 ) ) )
(or ( <= ( + T4 368 )  ( + T5 196 ) ) ( <= ( + T5 207 )( + T4 310 ) ) )
(or ( <= ( + T4 386 )  ( + T5 207 ) ) ( <= ( + T5 226 )( + T4 368 ) ) )
(or ( <= ( + T4 457 )  ( + T5 226 ) ) ( <= ( + T5 272 )( + T4 386 ) ) )
(or ( <= ( + T4 90 ) T6 ) ( <= ( + T6 97 ) T4 ) )
(or ( <= ( + T4 146 )  ( + T6 97 ) ) ( <= ( + T6 165 )( + T4 90 ) ) )
(or ( <= ( + T4 204 )  ( + T6 165 ) ) ( <= ( + T6 257 )( + T4 146 ) ) )
(or ( <= ( + T4 253 )  ( + T6 257 ) ) ( <= ( + T6 281 )( + T4 204 ) ) )
(or ( <= ( + T4 310 )  ( + T6 281 ) ) ( <= ( + T6 341 )( + T4 253 ) ) )
(or ( <= ( + T4 368 )  ( + T6 341 ) ) ( <= ( + T6 370 )( + T4 310 ) ) )
(or ( <= ( + T4 386 )  ( + T6 370 ) ) ( <= ( + T6 409 )( + T4 368 ) ) )
(or ( <= ( + T4 457 )  ( + T6 409 ) ) ( <= ( + T6 454 )( + T4 386 ) ) )
(or ( <= ( + T4 90 ) T7 ) ( <= ( + T7 81 ) T4 ) )
(or ( <= ( + T4 146 )  ( + T7 81 ) ) ( <= ( + T7 91 )( + T4 90 ) ) )
(or ( <= ( + T4 204 )  ( + T7 91 ) ) ( <= ( + T7 145 )( + T4 146 ) ) )
(or ( <= ( + T4 253 )  ( + T7 145 ) ) ( <= ( + T7 237 )( + T4 204 ) ) )
(or ( <= ( + T4 310 )  ( + T7 237 ) ) ( <= ( + T7 304 )( + T4 253 ) ) )
(or ( <= ( + T4 368 )  ( + T7 304 ) ) ( <= ( + T7 343 )( + T4 310 ) ) )
(or ( <= ( + T4 386 )  ( + T7 343 ) ) ( <= ( + T7 385 )( + T4 368 ) ) )
(or ( <= ( + T4 457 )  ( + T7 385 ) ) ( <= ( + T7 393 )( + T4 386 ) ) )
(or ( <= ( + T4 90 ) T8 ) ( <= ( + T8 46 ) T4 ) )
(or ( <= ( + T4 146 )  ( + T8 46 ) ) ( <= ( + T8 98 )( + T4 90 ) ) )
(or ( <= ( + T4 204 )  ( + T8 98 ) ) ( <= ( + T8 155 )( + T4 146 ) ) )
(or ( <= ( + T4 253 )  ( + T8 155 ) ) ( <= ( + T8 210 )( + T4 204 ) ) )
(or ( <= ( + T4 310 )  ( + T8 210 ) ) ( <= ( + T8 271 )( + T4 253 ) ) )
(or ( <= ( + T4 368 )  ( + T8 271 ) ) ( <= ( + T8 345 )( + T4 310 ) ) )
(or ( <= ( + T4 386 )  ( + T8 345 ) ) ( <= ( + T8 370 )( + T4 368 ) ) )
(or ( <= ( + T4 457 )  ( + T8 370 ) ) ( <= ( + T8 405 )( + T4 386 ) ) )
(or ( <= ( + T4 90 ) T9 ) ( <= ( + T9 69 ) T4 ) )
(or ( <= ( + T4 146 )  ( + T9 69 ) ) ( <= ( + T9 101 )( + T4 90 ) ) )
(or ( <= ( + T4 204 )  ( + T9 101 ) ) ( <= ( + T9 165 )( + T4 146 ) ) )
(or ( <= ( + T4 253 )  ( + T9 165 ) ) ( <= ( + T9 174 )( + T4 204 ) ) )
(or ( <= ( + T4 310 )  ( + T9 174 ) ) ( <= ( + T9 268 )( + T4 253 ) ) )
(or ( <= ( + T4 368 )  ( + T9 268 ) ) ( <= ( + T9 302 )( + T4 310 ) ) )
(or ( <= ( + T4 386 )  ( + T9 302 ) ) ( <= ( + T9 309 )( + T4 368 ) ) )
(or ( <= ( + T4 457 )  ( + T9 309 ) ) ( <= ( + T9 351 )( + T4 386 ) ) )
(or ( <= ( + T4 90 ) T10 ) ( <= ( + T10 2 ) T4 ) )
(or ( <= ( + T4 146 )  ( + T10 2 ) ) ( <= ( + T10 52 )( + T4 90 ) ) )
(or ( <= ( + T4 204 )  ( + T10 52 ) ) ( <= ( + T10 117 )( + T4 146 ) ) )
(or ( <= ( + T4 253 )  ( + T10 117 ) ) ( <= ( + T10 130 )( + T4 204 ) ) )
(or ( <= ( + T4 310 )  ( + T10 130 ) ) ( <= ( + T10 208 )( + T4 253 ) ) )
(or ( <= ( + T4 368 )  ( + T10 208 ) ) ( <= ( + T10 211 )( + T4 310 ) ) )
(or ( <= ( + T4 386 )  ( + T10 211 ) ) ( <= ( + T10 268 )( + T4 368 ) ) )
(or ( <= ( + T4 457 )  ( + T10 268 ) ) ( <= ( + T10 326 )( + T4 386 ) ) )
(or ( <= ( + T5 75 ) T6 ) ( <= ( + T6 97 ) T5 ) )
(or ( <= ( + T5 119 )  ( + T6 97 ) ) ( <= ( + T6 165 )( + T5 75 ) ) )
(or ( <= ( + T5 126 )  ( + T6 165 ) ) ( <= ( + T6 257 )( + T5 119 ) ) )
(or ( <= ( + T5 155 )  ( + T6 257 ) ) ( <= ( + T6 281 )( + T5 126 ) ) )
(or ( <= ( + T5 196 )  ( + T6 281 ) ) ( <= ( + T6 341 )( + T5 155 ) ) )
(or ( <= ( + T5 207 )  ( + T6 341 ) ) ( <= ( + T6 370 )( + T5 196 ) ) )
(or ( <= ( + T5 226 )  ( + T6 370 ) ) ( <= ( + T6 409 )( + T5 207 ) ) )
(or ( <= ( + T5 272 )  ( + T6 409 ) ) ( <= ( + T6 454 )( + T5 226 ) ) )
(or ( <= ( + T5 75 ) T7 ) ( <= ( + T7 81 ) T5 ) )
(or ( <= ( + T5 119 )  ( + T7 81 ) ) ( <= ( + T7 91 )( + T5 75 ) ) )
(or ( <= ( + T5 126 )  ( + T7 91 ) ) ( <= ( + T7 145 )( + T5 119 ) ) )
(or ( <= ( + T5 155 )  ( + T7 145 ) ) ( <= ( + T7 237 )( + T5 126 ) ) )
(or ( <= ( + T5 196 )  ( + T7 237 ) ) ( <= ( + T7 304 )( + T5 155 ) ) )
(or ( <= ( + T5 207 )  ( + T7 304 ) ) ( <= ( + T7 343 )( + T5 196 ) ) )
(or ( <= ( + T5 226 )  ( + T7 343 ) ) ( <= ( + T7 385 )( + T5 207 ) ) )
(or ( <= ( + T5 272 )  ( + T7 385 ) ) ( <= ( + T7 393 )( + T5 226 ) ) )
(or ( <= ( + T5 75 ) T8 ) ( <= ( + T8 46 ) T5 ) )
(or ( <= ( + T5 119 )  ( + T8 46 ) ) ( <= ( + T8 98 )( + T5 75 ) ) )
(or ( <= ( + T5 126 )  ( + T8 98 ) ) ( <= ( + T8 155 )( + T5 119 ) ) )
(or ( <= ( + T5 155 )  ( + T8 155 ) ) ( <= ( + T8 210 )( + T5 126 ) ) )
(or ( <= ( + T5 196 )  ( + T8 210 ) ) ( <= ( + T8 271 )( + T5 155 ) ) )
(or ( <= ( + T5 207 )  ( + T8 271 ) ) ( <= ( + T8 345 )( + T5 196 ) ) )
(or ( <= ( + T5 226 )  ( + T8 345 ) ) ( <= ( + T8 370 )( + T5 207 ) ) )
(or ( <= ( + T5 272 )  ( + T8 370 ) ) ( <= ( + T8 405 )( + T5 226 ) ) )
(or ( <= ( + T5 75 ) T9 ) ( <= ( + T9 69 ) T5 ) )
(or ( <= ( + T5 119 )  ( + T9 69 ) ) ( <= ( + T9 101 )( + T5 75 ) ) )
(or ( <= ( + T5 126 )  ( + T9 101 ) ) ( <= ( + T9 165 )( + T5 119 ) ) )
(or ( <= ( + T5 155 )  ( + T9 165 ) ) ( <= ( + T9 174 )( + T5 126 ) ) )
(or ( <= ( + T5 196 )  ( + T9 174 ) ) ( <= ( + T9 268 )( + T5 155 ) ) )
(or ( <= ( + T5 207 )  ( + T9 268 ) ) ( <= ( + T9 302 )( + T5 196 ) ) )
(or ( <= ( + T5 226 )  ( + T9 302 ) ) ( <= ( + T9 309 )( + T5 207 ) ) )
(or ( <= ( + T5 272 )  ( + T9 309 ) ) ( <= ( + T9 351 )( + T5 226 ) ) )
(or ( <= ( + T5 75 ) T10 ) ( <= ( + T10 2 ) T5 ) )
(or ( <= ( + T5 119 )  ( + T10 2 ) ) ( <= ( + T10 52 )( + T5 75 ) ) )
(or ( <= ( + T5 126 )  ( + T10 52 ) ) ( <= ( + T10 117 )( + T5 119 ) ) )
(or ( <= ( + T5 155 )  ( + T10 117 ) ) ( <= ( + T10 130 )( + T5 126 ) ) )
(or ( <= ( + T5 196 )  ( + T10 130 ) ) ( <= ( + T10 208 )( + T5 155 ) ) )
(or ( <= ( + T5 207 )  ( + T10 208 ) ) ( <= ( + T10 211 )( + T5 196 ) ) )
(or ( <= ( + T5 226 )  ( + T10 211 ) ) ( <= ( + T10 268 )( + T5 207 ) ) )
(or ( <= ( + T5 272 )  ( + T10 268 ) ) ( <= ( + T10 326 )( + T5 226 ) ) )
(or ( <= ( + T6 97 ) T7 ) ( <= ( + T7 81 ) T6 ) )
(or ( <= ( + T6 165 )  ( + T7 81 ) ) ( <= ( + T7 91 )( + T6 97 ) ) )
(or ( <= ( + T6 257 )  ( + T7 91 ) ) ( <= ( + T7 145 )( + T6 165 ) ) )
(or ( <= ( + T6 281 )  ( + T7 145 ) ) ( <= ( + T7 237 )( + T6 257 ) ) )
(or ( <= ( + T6 341 )  ( + T7 237 ) ) ( <= ( + T7 304 )( + T6 281 ) ) )
(or ( <= ( + T6 370 )  ( + T7 304 ) ) ( <= ( + T7 343 )( + T6 341 ) ) )
(or ( <= ( + T6 409 )  ( + T7 343 ) ) ( <= ( + T7 385 )( + T6 370 ) ) )
(or ( <= ( + T6 454 )  ( + T7 385 ) ) ( <= ( + T7 393 )( + T6 409 ) ) )
(or ( <= ( + T6 97 ) T8 ) ( <= ( + T8 46 ) T6 ) )
(or ( <= ( + T6 165 )  ( + T8 46 ) ) ( <= ( + T8 98 )( + T6 97 ) ) )
(or ( <= ( + T6 257 )  ( + T8 98 ) ) ( <= ( + T8 155 )( + T6 165 ) ) )
(or ( <= ( + T6 281 )  ( + T8 155 ) ) ( <= ( + T8 210 )( + T6 257 ) ) )
(or ( <= ( + T6 341 )  ( + T8 210 ) ) ( <= ( + T8 271 )( + T6 281 ) ) )
(or ( <= ( + T6 370 )  ( + T8 271 ) ) ( <= ( + T8 345 )( + T6 341 ) ) )
(or ( <= ( + T6 409 )  ( + T8 345 ) ) ( <= ( + T8 370 )( + T6 370 ) ) )
(or ( <= ( + T6 454 )  ( + T8 370 ) ) ( <= ( + T8 405 )( + T6 409 ) ) )
(or ( <= ( + T6 97 ) T9 ) ( <= ( + T9 69 ) T6 ) )
(or ( <= ( + T6 165 )  ( + T9 69 ) ) ( <= ( + T9 101 )( + T6 97 ) ) )
(or ( <= ( + T6 257 )  ( + T9 101 ) ) ( <= ( + T9 165 )( + T6 165 ) ) )
(or ( <= ( + T6 281 )  ( + T9 165 ) ) ( <= ( + T9 174 )( + T6 257 ) ) )
(or ( <= ( + T6 341 )  ( + T9 174 ) ) ( <= ( + T9 268 )( + T6 281 ) ) )
(or ( <= ( + T6 370 )  ( + T9 268 ) ) ( <= ( + T9 302 )( + T6 341 ) ) )
(or ( <= ( + T6 409 )  ( + T9 302 ) ) ( <= ( + T9 309 )( + T6 370 ) ) )
(or ( <= ( + T6 454 )  ( + T9 309 ) ) ( <= ( + T9 351 )( + T6 409 ) ) )
(or ( <= ( + T6 97 ) T10 ) ( <= ( + T10 2 ) T6 ) )
(or ( <= ( + T6 165 )  ( + T10 2 ) ) ( <= ( + T10 52 )( + T6 97 ) ) )
(or ( <= ( + T6 257 )  ( + T10 52 ) ) ( <= ( + T10 117 )( + T6 165 ) ) )
(or ( <= ( + T6 281 )  ( + T10 117 ) ) ( <= ( + T10 130 )( + T6 257 ) ) )
(or ( <= ( + T6 341 )  ( + T10 130 ) ) ( <= ( + T10 208 )( + T6 281 ) ) )
(or ( <= ( + T6 370 )  ( + T10 208 ) ) ( <= ( + T10 211 )( + T6 341 ) ) )
(or ( <= ( + T6 409 )  ( + T10 211 ) ) ( <= ( + T10 268 )( + T6 370 ) ) )
(or ( <= ( + T6 454 )  ( + T10 268 ) ) ( <= ( + T10 326 )( + T6 409 ) ) )
(or ( <= ( + T7 81 ) T8 ) ( <= ( + T8 46 ) T7 ) )
(or ( <= ( + T7 91 )  ( + T8 46 ) ) ( <= ( + T8 98 )( + T7 81 ) ) )
(or ( <= ( + T7 145 )  ( + T8 98 ) ) ( <= ( + T8 155 )( + T7 91 ) ) )
(or ( <= ( + T7 237 )  ( + T8 155 ) ) ( <= ( + T8 210 )( + T7 145 ) ) )
(or ( <= ( + T7 304 )  ( + T8 210 ) ) ( <= ( + T8 271 )( + T7 237 ) ) )
(or ( <= ( + T7 343 )  ( + T8 271 ) ) ( <= ( + T8 345 )( + T7 304 ) ) )
(or ( <= ( + T7 385 )  ( + T8 345 ) ) ( <= ( + T8 370 )( + T7 343 ) ) )
(or ( <= ( + T7 393 )  ( + T8 370 ) ) ( <= ( + T8 405 )( + T7 385 ) ) )
(or ( <= ( + T7 81 ) T9 ) ( <= ( + T9 69 ) T7 ) )
(or ( <= ( + T7 91 )  ( + T9 69 ) ) ( <= ( + T9 101 )( + T7 81 ) ) )
(or ( <= ( + T7 145 )  ( + T9 101 ) ) ( <= ( + T9 165 )( + T7 91 ) ) )
(or ( <= ( + T7 237 )  ( + T9 165 ) ) ( <= ( + T9 174 )( + T7 145 ) ) )
(or ( <= ( + T7 304 )  ( + T9 174 ) ) ( <= ( + T9 268 )( + T7 237 ) ) )
(or ( <= ( + T7 343 )  ( + T9 268 ) ) ( <= ( + T9 302 )( + T7 304 ) ) )
(or ( <= ( + T7 385 )  ( + T9 302 ) ) ( <= ( + T9 309 )( + T7 343 ) ) )
(or ( <= ( + T7 393 )  ( + T9 309 ) ) ( <= ( + T9 351 )( + T7 385 ) ) )
(or ( <= ( + T7 81 ) T10 ) ( <= ( + T10 2 ) T7 ) )
(or ( <= ( + T7 91 )  ( + T10 2 ) ) ( <= ( + T10 52 )( + T7 81 ) ) )
(or ( <= ( + T7 145 )  ( + T10 52 ) ) ( <= ( + T10 117 )( + T7 91 ) ) )
(or ( <= ( + T7 237 )  ( + T10 117 ) ) ( <= ( + T10 130 )( + T7 145 ) ) )
(or ( <= ( + T7 304 )  ( + T10 130 ) ) ( <= ( + T10 208 )( + T7 237 ) ) )
(or ( <= ( + T7 343 )  ( + T10 208 ) ) ( <= ( + T10 211 )( + T7 304 ) ) )
(or ( <= ( + T7 385 )  ( + T10 211 ) ) ( <= ( + T10 268 )( + T7 343 ) ) )
(or ( <= ( + T7 393 )  ( + T10 268 ) ) ( <= ( + T10 326 )( + T7 385 ) ) )
(or ( <= ( + T8 46 ) T9 ) ( <= ( + T9 69 ) T8 ) )
(or ( <= ( + T8 98 )  ( + T9 69 ) ) ( <= ( + T9 101 )( + T8 46 ) ) )
(or ( <= ( + T8 155 )  ( + T9 101 ) ) ( <= ( + T9 165 )( + T8 98 ) ) )
(or ( <= ( + T8 210 )  ( + T9 165 ) ) ( <= ( + T9 174 )( + T8 155 ) ) )
(or ( <= ( + T8 271 )  ( + T9 174 ) ) ( <= ( + T9 268 )( + T8 210 ) ) )
(or ( <= ( + T8 345 )  ( + T9 268 ) ) ( <= ( + T9 302 )( + T8 271 ) ) )
(or ( <= ( + T8 370 )  ( + T9 302 ) ) ( <= ( + T9 309 )( + T8 345 ) ) )
(or ( <= ( + T8 405 )  ( + T9 309 ) ) ( <= ( + T9 351 )( + T8 370 ) ) )
(or ( <= ( + T8 46 ) T10 ) ( <= ( + T10 2 ) T8 ) )
(or ( <= ( + T8 98 )  ( + T10 2 ) ) ( <= ( + T10 52 )( + T8 46 ) ) )
(or ( <= ( + T8 155 )  ( + T10 52 ) ) ( <= ( + T10 117 )( + T8 98 ) ) )
(or ( <= ( + T8 210 )  ( + T10 117 ) ) ( <= ( + T10 130 )( + T8 155 ) ) )
(or ( <= ( + T8 271 )  ( + T10 130 ) ) ( <= ( + T10 208 )( + T8 210 ) ) )
(or ( <= ( + T8 345 )  ( + T10 208 ) ) ( <= ( + T10 211 )( + T8 271 ) ) )
(or ( <= ( + T8 370 )  ( + T10 211 ) ) ( <= ( + T10 268 )( + T8 345 ) ) )
(or ( <= ( + T8 405 )  ( + T10 268 ) ) ( <= ( + T10 326 )( + T8 370 ) ) )
(or ( <= ( + T9 69 ) T10 ) ( <= ( + T10 2 ) T9 ) )
(or ( <= ( + T9 101 )  ( + T10 2 ) ) ( <= ( + T10 52 )( + T9 69 ) ) )
(or ( <= ( + T9 165 )  ( + T10 52 ) ) ( <= ( + T10 117 )( + T9 101 ) ) )
(or ( <= ( + T9 174 )  ( + T10 117 ) ) ( <= ( + T10 130 )( + T9 165 ) ) )
(or ( <= ( + T9 268 )  ( + T10 130 ) ) ( <= ( + T10 208 )( + T9 174 ) ) )
(or ( <= ( + T9 302 )  ( + T10 208 ) ) ( <= ( + T10 211 )( + T9 268 ) ) )
(or ( <= ( + T9 309 )  ( + T10 211 ) ) ( <= ( + T10 268 )( + T9 302 ) ) )
(or ( <= ( + T9 351 )  ( + T10 268 ) ) ( <= ( + T10 326 )( + T9 309 ) ) )
( <= ( + T1 435 ) Z)
( <= ( + T2 403 ) Z)
( <= ( + T3 371 ) Z)
( <= ( + T4 457 ) Z)
( <= ( + T5 272 ) Z)
( <= ( + T6 454 ) Z)
( <= ( + T7 393 ) Z)
( <= ( + T8 405 ) Z)
( <= ( + T9 351 ) Z)
( <= ( + T10 326 ) Z)
( >= T1 0 )
( >= T2 0 )
( >= T3 0 )
( >= T4 0 )
( >= T5 0 )
( >= T6 0 )
( >= T7 0 )
( >= T8 0 )
( >= T9 0 )
( >= T10 0 )
) )
)(=> $phi $goal))))